(set-logic ALL)
(declare-fun var0 () String)
(assert (str.in_re var0 (re.++ (re.union (re.+ (str.to_re "00")) (re.+ (str.to_re "11"))) (re.++ (re.+ (re.+ (str.to_re "22"))) (re.++ (re.+ (re.+ (str.to_re "3"))) (re.++ (re.+ (re.union (str.to_re "4") (str.to_re "5"))) (re.++ (re.union (re.union (str.to_re "666") (str.to_re "7")) (re.union (str.to_re "8") (str.to_re "999"))) (re.++ (re.+ (re.+ (str.to_re "a"))) (re.++ (re.* (re.* (str.to_re "b"))) (re.++ (re.* (re.union (str.to_re "ccc") (str.to_re "d"))) (re.++ (re.+ (re.+ (str.to_re "ee"))) (re.++ (re.* (re.union (str.to_re "f") (str.to_re "g"))) (re.++ (re.* (re.union (str.to_re "h") (str.to_re "iii"))) (re.++ (re.* (re.+ (str.to_re "jj"))) (re.++ (re.* (re.union (str.to_re "kk") (str.to_re "lll"))) (re.++ (re.+ (re.+ (str.to_re "mm"))) (re.++ (re.+ (re.union (str.to_re "nn") (str.to_re "o"))) (re.++ (re.union (re.+ (str.to_re "ppp")) (re.+ (str.to_re "q"))) (re.++ (re.+ (re.* (str.to_re "rr"))) (re.++ (re.+ (re.union (str.to_re "s") (str.to_re "ttt"))) (re.++ (re.* (re.* (str.to_re "u"))) (re.++ (re.+ (re.* (str.to_re "vvv"))) (re.++ (re.+ (re.* (str.to_re "ww"))) (re.++ (re.union (re.* (str.to_re "xx")) (re.* (str.to_re "yyy"))) (re.++ (re.* (re.union (str.to_re "zz") (str.to_re "A"))) (re.++ (re.* (re.* (str.to_re "BB"))) (re.++ (re.+ (re.union (str.to_re "CC") (str.to_re "D"))) (re.++ (re.union (re.* (str.to_re "EE")) (re.* (str.to_re "FFF"))) (re.++ (re.union (re.+ (str.to_re "GGG")) (re.+ (str.to_re "HH"))) (re.++ (re.+ (re.+ (str.to_re "III"))) (re.++ (re.* (re.union (str.to_re "JJ") (str.to_re "KKK"))) (re.++ (re.+ (re.union (str.to_re "LL") (str.to_re "M"))) (re.++ (re.+ (re.union (str.to_re "NNN") (str.to_re "O"))) (re.++ (re.union (re.union (str.to_re "P") (str.to_re "Q")) (re.union (str.to_re "RRR") (str.to_re "SS"))) (re.++ (re.+ (re.union (str.to_re "TTT") (str.to_re "UU"))) (re.++ (re.+ (re.* (str.to_re "V"))) (re.++ (re.* (re.union (str.to_re "WW") (str.to_re "X"))) (re.++ (re.+ (re.+ (str.to_re "YYY"))) (re.++ (re.+ (re.+ (str.to_re "ZZZ"))) (re.++ (re.* (re.union (str.to_re "!!!") (str.to_re """"""""))) (re.++ (re.+ (re.+ (str.to_re "#"))) (re.++ (re.* (re.* (str.to_re "$$"))) (re.++ (re.union (re.+ (str.to_re "%")) (re.+ (str.to_re "&&"))) (re.++ (re.union (re.* (str.to_re "''")) (re.* (str.to_re "("))) (re.++ (re.+ (re.union (str.to_re ")))") (str.to_re "*"))) (re.++ (re.union (re.+ (str.to_re "+++")) (re.+ (str.to_re ",,"))) (re.++ (re.* (re.* (str.to_re "-"))) (re.++ (re.union (re.+ (str.to_re ".")) (re.+ (str.to_re "///"))) (re.++ (re.* (re.union (str.to_re ":::") (str.to_re ";;;"))) (re.++ (re.+ (re.union (str.to_re "<<") (str.to_re "=="))) (re.++ (re.+ (re.union (str.to_re ">") (str.to_re "???"))) (re.++ (re.union (re.+ (str.to_re "@")) (re.+ (str.to_re "[[["))) (re.+ (re.* (str.to_re "\\\\\\")))))))))))))))))))))))))))))))))))))))))))))))))))))))
(assert (not (str.in_re var0 (re.++ (re.union (re.* (str.to_re "00")) (re.* (str.to_re "1"))) (re.++ (re.+ (re.* (str.to_re "222"))) (re.++ (re.* (re.* (str.to_re "333"))) (re.++ (re.union (re.+ (str.to_re "44")) (re.+ (str.to_re "55"))) (re.++ (re.union (re.union (str.to_re "66") (str.to_re "777")) (re.union (str.to_re "88") (str.to_re "9"))) (re.++ (re.* (re.* (str.to_re "a"))) (re.++ (re.* (re.+ (str.to_re "bbb"))) (re.++ (re.* (re.+ (str.to_re "cc"))) (re.++ (re.union (re.* (str.to_re "dd")) (re.* (str.to_re "eee"))) (re.++ (re.union (re.* (str.to_re "f")) (re.* (str.to_re "ggg"))) (re.++ (re.* (re.+ (str.to_re "h"))) (re.++ (re.+ (re.+ (str.to_re "ii"))) (re.++ (re.* (re.union (str.to_re "jjj") (str.to_re "k"))) (re.++ (re.union (re.union (str.to_re "lll") (str.to_re "mm")) (re.union (str.to_re "nn") (str.to_re "o"))) (re.++ (re.* (re.* (str.to_re "pp"))) (re.++ (re.* (re.* (str.to_re "q"))) (re.++ (re.+ (re.+ (str.to_re "rrr"))) (re.++ (re.union (re.* (str.to_re "s")) (re.* (str.to_re "tt"))) (re.++ (re.union (re.union (str.to_re "u") (str.to_re "v")) (re.union (str.to_re "ww") (str.to_re "xxx"))) (re.++ (re.union (re.+ (str.to_re "yy")) (re.+ (str.to_re "zz"))) (re.++ (re.union (re.* (str.to_re "A")) (re.* (str.to_re "BBB"))) (re.++ (re.* (re.* (str.to_re "CC"))) (re.++ (re.* (re.union (str.to_re "DDD") (str.to_re "EEE"))) (re.++ (re.* (re.+ (str.to_re "FFF"))) (re.++ (re.+ (re.+ (str.to_re "GGG"))) (re.++ (re.+ (re.* (str.to_re "H"))) (re.++ (re.union (re.* (str.to_re "III")) (re.* (str.to_re "JJJ"))) (re.++ (re.union (re.union (str.to_re "KK") (str.to_re "L")) (re.union (str.to_re "M") (str.to_re "NN"))) (re.++ (re.* (re.* (str.to_re "O"))) (re.++ (re.* (re.* (str.to_re "PPP"))) (re.++ (re.union (re.+ (str.to_re "QQ")) (re.+ (str.to_re "R"))) (re.++ (re.+ (re.+ (str.to_re "SS"))) (re.++ (re.+ (re.* (str.to_re "T"))) (re.++ (re.union (re.* (str.to_re "UUU")) (re.* (str.to_re "VVV"))) (re.++ (re.* (re.+ (str.to_re "WWW"))) (re.++ (re.* (re.+ (str.to_re "XX"))) (re.++ (re.+ (re.* (str.to_re "YY"))) (re.++ (re.* (re.union (str.to_re "ZZ") (str.to_re "!"))) (re.++ (re.union (re.union (str.to_re """""") (str.to_re "#")) (re.union (str.to_re "$") (str.to_re "%%%"))) (re.++ (re.* (re.+ (str.to_re "&&&"))) (re.++ (re.+ (re.+ (str.to_re "'''"))) (re.++ (re.* (re.union (str.to_re "(((") (str.to_re "))"))) (re.++ (re.+ (re.* (str.to_re "**"))) (re.++ (re.+ (re.union (str.to_re "++") (str.to_re ",,,"))) (re.++ (re.union (re.* (str.to_re "--")) (re.* (str.to_re "..."))) (re.++ (re.* (re.* (str.to_re "/"))) (re.++ (re.+ (re.* (str.to_re ":::"))) (re.++ (re.* (re.+ (str.to_re ";"))) (re.++ (re.+ (re.union (str.to_re "<") (str.to_re "="))) (re.++ (re.+ (re.* (str.to_re ">>"))) (re.* (re.* (str.to_re "?"))))))))))))))))))))))))))))))))))))))))))))))))))))))))
(check-sat)